
(set-logic HORN)
(declare-datatypes ((Bin_1 0)) (((One_1) (ZeroAnd_1 (projZeroAnd_2 Bin_1)) (OneAnd_1 (projOneAnd_2 Bin_1)))))
(declare-fun diseqBin_1 (Bin_1 Bin_1) Bool)
(declare-fun projZeroAnd_3 (Bin_1 Bin_1) Bool)
(declare-fun projOneAnd_3 (Bin_1 Bin_1) Bool)
(declare-fun isOne_1 (Bin_1) Bool)
(declare-fun isZeroAnd_1 (Bin_1) Bool)
(declare-fun isOneAnd_1 (Bin_1) Bool)
(assert (forall ((x_18547 Bin_1))
	(projZeroAnd_3 x_18547 (ZeroAnd_1 x_18547))))
(assert (forall ((x_18549 Bin_1))
	(projOneAnd_3 x_18549 (OneAnd_1 x_18549))))
(assert (isOne_1 One_1))
(assert (forall ((x_18551 Bin_1))
	(isZeroAnd_1 (ZeroAnd_1 x_18551))))
(assert (forall ((x_18552 Bin_1))
	(isOneAnd_1 (OneAnd_1 x_18552))))
(assert (forall ((x_18553 Bin_1))
	(diseqBin_1 One_1 (ZeroAnd_1 x_18553))))
(assert (forall ((x_18554 Bin_1))
	(diseqBin_1 One_1 (OneAnd_1 x_18554))))
(assert (forall ((x_18555 Bin_1))
	(diseqBin_1 (ZeroAnd_1 x_18555) One_1)))
(assert (forall ((x_18556 Bin_1))
	(diseqBin_1 (OneAnd_1 x_18556) One_1)))
(assert (forall ((x_18557 Bin_1) (x_18558 Bin_1))
	(diseqBin_1 (ZeroAnd_1 x_18557) (OneAnd_1 x_18558))))
(assert (forall ((x_18559 Bin_1) (x_18560 Bin_1))
	(diseqBin_1 (OneAnd_1 x_18559) (ZeroAnd_1 x_18560))))
(assert (forall ((x_18561 Bin_1) (x_18562 Bin_1))
	(=> (diseqBin_1 x_18561 x_18562) (diseqBin_1 (ZeroAnd_1 x_18561) (ZeroAnd_1 x_18562)))))
(assert (forall ((x_18563 Bin_1) (x_18564 Bin_1))
	(=> (diseqBin_1 x_18563 x_18564) (diseqBin_1 (OneAnd_1 x_18563) (OneAnd_1 x_18564)))))
(declare-fun s_212 (Bin_1 Bin_1) Bool)
(assert (forall ((x_18525 Bin_1) (ys_63 Bin_1))
	(=> (s_212 x_18525 ys_63) (s_212 (ZeroAnd_1 x_18525) (OneAnd_1 ys_63)))))
(assert (forall ((xs_230 Bin_1))
	(s_212 (OneAnd_1 xs_230) (ZeroAnd_1 xs_230))))
(assert (s_212 (ZeroAnd_1 One_1) One_1))
(declare-fun plus_28 (Bin_1 Bin_1 Bin_1) Bool)
(assert (forall ((x_18529 Bin_1) (x_18530 Bin_1) (ys_64 Bin_1) (x_18522 Bin_1))
	(=> (and (plus_28 x_18529 x_18522 ys_64) (s_212 x_18530 x_18529)) (plus_28 (ZeroAnd_1 x_18530) (OneAnd_1 x_18522) (OneAnd_1 ys_64)))))
(assert (forall ((x_18532 Bin_1) (zs_15 Bin_1) (x_18522 Bin_1))
	(=> (plus_28 x_18532 x_18522 zs_15) (plus_28 (OneAnd_1 x_18532) (OneAnd_1 x_18522) (ZeroAnd_1 zs_15)))))
(assert (forall ((x_18533 Bin_1) (x_18522 Bin_1))
	(=> (s_212 x_18533 (OneAnd_1 x_18522)) (plus_28 x_18533 (OneAnd_1 x_18522) One_1))))
(assert (forall ((x_18536 Bin_1) (xs_231 Bin_1) (z_730 Bin_1))
	(=> (plus_28 x_18536 z_730 xs_231) (plus_28 (OneAnd_1 x_18536) (ZeroAnd_1 z_730) (OneAnd_1 xs_231)))))
(assert (forall ((x_18538 Bin_1) (ys_65 Bin_1) (z_730 Bin_1))
	(=> (plus_28 x_18538 z_730 ys_65) (plus_28 (ZeroAnd_1 x_18538) (ZeroAnd_1 z_730) (ZeroAnd_1 ys_65)))))
(assert (forall ((x_18539 Bin_1) (z_730 Bin_1))
	(=> (s_212 x_18539 (ZeroAnd_1 z_730)) (plus_28 x_18539 (ZeroAnd_1 z_730) One_1))))
(assert (forall ((x_18541 Bin_1) (y_716 Bin_1))
	(=> (s_212 x_18541 y_716) (plus_28 x_18541 One_1 y_716))))
(assert (forall ((x_18543 Bin_1) (x_18544 Bin_1) (x_18523 Bin_1) (y_717 Bin_1))
	(=> (and true (diseqBin_1 x_18543 x_18544) (plus_28 x_18543 x_18523 y_717) (plus_28 x_18544 y_717 x_18523)) false)))
(check-sat)
